\ Model tsp_lp
\ LP format - for model browsing. Use MPS format to capture full model detail.
Minimize
  2314 C0 + 1039 C1 + 1019 C2 + 736 C3 + 726 C4 + 656 C5 + 635 C6 + 619 C7
   + 604 C8 + 596 C9 + 509 C10 + 501 C11 + 479 C12 + 479 C13 + 448 C14
   + 342 C15 + 323 C16 + 312 C17 + 202 C18 + 150 C19 + 60 C20 + 2789 C21
   + 1526 C22 + 1449 C23 + 1226 C24 + 1133 C25 + 1127 C26 + 1122 C27
   + 1047 C28 + 1021 C29 + 1010 C30 + 978 C31 + 958 C32 + 941 C33 + 542 C34
   + 532 C35 + 510 C36 + 474 C37 + 364 C38 + 246 C39 + 126 C40 + 2728 C41
   + 1516 C42 + 1371 C43 + 1184 C44 + 1115 C45 + 1084 C46 + 1045 C47
   + 976 C48 + 952 C49 + 946 C50 + 941 C51 + 913 C52 + 904 C53 + 577 C54
   + 541 C55 + 536 C56 + 499 C57 + 401 C58 + 321 C59 + 2553 C60 + 1333 C61
   + 1157 C62 + 1029 C63 + 980 C64 + 936 C65 + 919 C66 + 904 C67 + 898 C68
   + 783 C69 + 751 C70 + 720 C71 + 704 C72 + 455 C73 + 271 C74 + 228 C75
   + 171 C76 + 37 C77 + 1504 C78 + 1325 C79 + 1179 C80 + 1134 C81
   + 1033 C82 + 996 C83 + 858 C84 + 855 C85 + 820 C86 + 818 C87 + 808 C88
   + 677 C89 + 651 C90 + 600 C91 + 583 C92 + 478 C93 + 401 C94 + 1581 C95
   + 1077 C96 + 970 C97 + 932 C98 + 740 C99 + 687 C100 + 470 C101
   + 379 C102 + 348 C103 + 342 C104 + 336 C105 + 308 C106 + 289 C107
   + 271 C108 + 261 C109 + 115 C110 + 1661 C111 + 997 C112 + 913 C113
   + 856 C114 + 667 C115 + 592 C116 + 455 C117 + 343 C118 + 288 C119
   + 237 C120 + 236 C121 + 226 C122 + 216 C123 + 207 C124 + 177 C125
   + 2320 C126 + 1066 C127 + 759 C128 + 666 C129 + 634 C130 + 628 C131
   + 598 C132 + 493 C133 + 479 C134 + 454 C135 + 341 C136 + 278 C137
   + 206 C138 + 194 C139 + 1387 C140 + 1367 C141 + 1333 C142 + 1239 C143
   + 933 C144 + 776 C145 + 656 C146 + 650 C147 + 591 C148 + 447 C149
   + 438 C150 + 408 C151 + 328 C152 + 1697 C153 + 1046 C154 + 1033 C155
   + 922 C156 + 622 C157 + 610 C158 + 427 C159 + 400 C160 + 333 C161
   + 133 C162 + 128 C163 + 96 C164 + 2656 C165 + 2540 C166 + 2512 C167
   + 2248 C168 + 1868 C169 + 1841 C170 + 1838 C171 + 1789 C172 + 1789 C173
   + 1777 C174 + 1755 C175 + 821 C176 + 748 C177 + 680 C178 + 417 C179
   + 336 C180 + 243 C181 + 217 C182 + 214 C183 + 105 C184 + 68 C185
   + 789 C186 + 698 C187 + 645 C188 + 406 C189 + 311 C190 + 287 C191
   + 283 C192 + 281 C193 + 52 C194 + 818 C195 + 712 C196 + 672 C197
   + 449 C198 + 341 C199 + 318 C200 + 314 C201 + 237 C202 + 932 C203
   + 785 C204 + 764 C205 + 636 C206 + 550 C207 + 535 C208 + 528 C209
   + 525 C210 + 496 C211 + 486 C212 + 470 C213 + 436 C214 + 319 C215
   + 959 C216 + 930 C217 + 921 C218 + 265 C219 + 148 C220 + 939 C221
   + 907 C222 + 901 C223 + 201 C224 + 833 C225 + 39 C226 + 33 C227
   + 803 C228 + 14 C229 + 794 C230
Subject To
 R0: C0 + C1 + C2 + C3 + C4 + C5 + C6 + C7 + C8 + C9 + C10 + C11 + C12
   + C13 + C14 + C15 + C16 + C17 + C18 + C19 + C20 = 2
 R1: C10 + C21 + C22 + C23 + C24 + C25 + C26 + C27 + C28 + C29 + C30 + C31
   + C32 + C33 + C34 + C35 + C36 + C37 + C38 + C39 + C40 = 2
 R2: C11 + C40 + C41 + C42 + C43 + C44 + C45 + C46 + C47 + C48 + C49 + C50
   + C51 + C52 + C53 + C54 + C55 + C56 + C57 + C58 + C59 = 2
 R3: C17 + C37 + C55 + C60 + C61 + C62 + C63 + C64 + C65 + C66 + C67 + C68
   + C69 + C70 + C71 + C72 + C73 + C74 + C75 + C76 + C77 = 2
 R4: C2 + C22 + C42 + C62 + C78 + C79 + C80 + C81 + C82 + C83 + C84 + C85
   + C86 + C87 + C88 + C89 + C90 + C91 + C92 + C93 + C94 = 2
 R5: C3 + C24 + C44 + C64 + C93 + C95 + C96 + C97 + C98 + C99 + C100 + C101
   + C102 + C103 + C104 + C105 + C106 + C107 + C108 + C109 + C110 = 2
 R6: C5 + C25 + C46 + C66 + C92 + C110 + C111 + C112 + C113 + C114 + C115
   + C116 + C117 + C118 + C119 + C120 + C121 + C122 + C123 + C124 + C125
   = 2
 R7: C20 + C35 + C56 + C74 + C83 + C99 + C115 + C126 + C127 + C128 + C129
   + C130 + C131 + C132 + C133 + C134 + C135 + C136 + C137 + C138 + C139
   = 2
 R8: C1 + C23 + C43 + C61 + C84 + C101 + C117 + C127 + C140 + C141 + C142
   + C143 + C144 + C145 + C146 + C147 + C148 + C149 + C150 + C151 + C152
   = 2
 R9: C4 + C27 + C47 + C63 + C85 + C102 + C119 + C128 + C152 + C153 + C154
   + C155 + C156 + C157 + C158 + C159 + C160 + C161 + C162 + C163 + C164
   = 2
 R10: C0 + C21 + C41 + C60 + C78 + C95 + C111 + C126 + C140 + C153 + C165
   + C166 + C167 + C168 + C169 + C170 + C171 + C172 + C173 + C174 + C175
   = 2
 R11: C12 + C32 + C52 + C70 + C89 + C108 + C125 + C133 + C148 + C161 + C171
   + C176 + C177 + C178 + C179 + C180 + C181 + C182 + C183 + C184 + C185
   = 2
 R12: C14 + C33 + C53 + C72 + C90 + C107 + C123 + C135 + C147 + C160 + C169
   + C185 + C186 + C187 + C188 + C189 + C190 + C191 + C192 + C193 + C194
   = 2
 R13: C13 + C31 + C50 + C71 + C91 + C109 + C124 + C134 + C146 + C159 + C170
   + C184 + C194 + C195 + C196 + C197 + C198 + C199 + C200 + C201 + C202
   = 2
 R14: C7 + C26 + C45 + C69 + C94 + C106 + C118 + C132 + C145 + C157 + C173
   + C180 + C191 + C202 + C203 + C204 + C205 + C206 + C207 + C208 + C209
   = 2
 R15: C19 + C34 + C57 + C73 + C82 + C100 + C116 + C138 + C144 + C158 + C168
   + C179 + C189 + C198 + C206 + C210 + C211 + C212 + C213 + C214 + C215
   = 2
 R16: C15 + C39 + C59 + C75 + C79 + C96 + C112 + C136 + C141 + C154 + C165
   + C176 + C186 + C195 + C203 + C214 + C216 + C217 + C218 + C219 + C220
   = 2
 R17: C16 + C36 + C54 + C77 + C81 + C97 + C113 + C137 + C142 + C155 + C166
   + C177 + C187 + C196 + C205 + C213 + C219 + C221 + C222 + C223 + C224
   = 2
 R18: C6 + C28 + C48 + C65 + C87 + C104 + C121 + C129 + C151 + C164 + C175
   + C181 + C190 + C199 + C207 + C210 + C216 + C221 + C225 + C226 + C227
   = 2
 R19: C8 + C29 + C49 + C67 + C88 + C105 + C122 + C130 + C150 + C163 + C174
   + C183 + C193 + C201 + C209 + C211 + C217 + C222 + C227 + C228 + C229
   = 2
 R20: C9 + C30 + C51 + C68 + C86 + C103 + C120 + C131 + C149 + C162 + C172
   + C182 + C192 + C200 + C208 + C212 + C218 + C223 + C226 + C229 + C230
   = 2
 R21: C18 + C38 + C58 + C76 + C80 + C98 + C114 + C139 + C143 + C156 + C167
   + C178 + C188 + C197 + C204 + C215 + C220 + C224 + C225 + C228 + C230
   = 2
Bounds
 C0 <= 1
 C1 <= 1
 C2 <= 1
 C3 <= 1
 C4 <= 1
 C5 <= 1
 C6 <= 1
 C7 <= 1
 C8 <= 1
 C9 <= 1
 C10 <= 1
 C11 <= 1
 C12 <= 1
 C13 <= 1
 C14 <= 1
 C15 <= 1
 C16 <= 1
 C17 <= 1
 C18 <= 1
 C19 <= 1
 C20 <= 1
 C21 <= 1
 C22 <= 1
 C23 <= 1
 C24 <= 1
 C25 <= 1
 C26 <= 1
 C27 <= 1
 C28 <= 1
 C29 <= 1
 C30 <= 1
 C31 <= 1
 C32 <= 1
 C33 <= 1
 C34 <= 1
 C35 <= 1
 C36 <= 1
 C37 <= 1
 C38 <= 1
 C39 <= 1
 C40 <= 1
 C41 <= 1
 C42 <= 1
 C43 <= 1
 C44 <= 1
 C45 <= 1
 C46 <= 1
 C47 <= 1
 C48 <= 1
 C49 <= 1
 C50 <= 1
 C51 <= 1
 C52 <= 1
 C53 <= 1
 C54 <= 1
 C55 <= 1
 C56 <= 1
 C57 <= 1
 C58 <= 1
 C59 <= 1
 C60 <= 1
 C61 <= 1
 C62 <= 1
 C63 <= 1
 C64 <= 1
 C65 <= 1
 C66 <= 1
 C67 <= 1
 C68 <= 1
 C69 <= 1
 C70 <= 1
 C71 <= 1
 C72 <= 1
 C73 <= 1
 C74 <= 1
 C75 <= 1
 C76 <= 1
 C77 <= 1
 C78 <= 1
 C79 <= 1
 C80 <= 1
 C81 <= 1
 C82 <= 1
 C83 <= 1
 C84 <= 1
 C85 <= 1
 C86 <= 1
 C87 <= 1
 C88 <= 1
 C89 <= 1
 C90 <= 1
 C91 <= 1
 C92 <= 1
 C93 <= 1
 C94 <= 1
 C95 <= 1
 C96 <= 1
 C97 <= 1
 C98 <= 1
 C99 <= 1
 C100 <= 1
 C101 <= 1
 C102 <= 1
 C103 <= 1
 C104 <= 1
 C105 <= 1
 C106 <= 1
 C107 <= 1
 C108 <= 1
 C109 <= 1
 C110 <= 1
 C111 <= 1
 C112 <= 1
 C113 <= 1
 C114 <= 1
 C115 <= 1
 C116 <= 1
 C117 <= 1
 C118 <= 1
 C119 <= 1
 C120 <= 1
 C121 <= 1
 C122 <= 1
 C123 <= 1
 C124 <= 1
 C125 <= 1
 C126 <= 1
 C127 <= 1
 C128 <= 1
 C129 <= 1
 C130 <= 1
 C131 <= 1
 C132 <= 1
 C133 <= 1
 C134 <= 1
 C135 <= 1
 C136 <= 1
 C137 <= 1
 C138 <= 1
 C139 <= 1
 C140 <= 1
 C141 <= 1
 C142 <= 1
 C143 <= 1
 C144 <= 1
 C145 <= 1
 C146 <= 1
 C147 <= 1
 C148 <= 1
 C149 <= 1
 C150 <= 1
 C151 <= 1
 C152 <= 1
 C153 <= 1
 C154 <= 1
 C155 <= 1
 C156 <= 1
 C157 <= 1
 C158 <= 1
 C159 <= 1
 C160 <= 1
 C161 <= 1
 C162 <= 1
 C163 <= 1
 C164 <= 1
 C165 <= 1
 C166 <= 1
 C167 <= 1
 C168 <= 1
 C169 <= 1
 C170 <= 1
 C171 <= 1
 C172 <= 1
 C173 <= 1
 C174 <= 1
 C175 <= 1
 C176 <= 1
 C177 <= 1
 C178 <= 1
 C179 <= 1
 C180 <= 1
 C181 <= 1
 C182 <= 1
 C183 <= 1
 C184 <= 1
 C185 <= 1
 C186 <= 1
 C187 <= 1
 C188 <= 1
 C189 <= 1
 C190 <= 1
 C191 <= 1
 C192 <= 1
 C193 <= 1
 C194 <= 1
 C195 <= 1
 C196 <= 1
 C197 <= 1
 C198 <= 1
 C199 <= 1
 C200 <= 1
 C201 <= 1
 C202 <= 1
 C203 <= 1
 C204 <= 1
 C205 <= 1
 C206 <= 1
 C207 <= 1
 C208 <= 1
 C209 <= 1
 C210 <= 1
 C211 <= 1
 C212 <= 1
 C213 <= 1
 C214 <= 1
 C215 <= 1
 C216 <= 1
 C217 <= 1
 C218 <= 1
 C219 <= 1
 C220 <= 1
 C221 <= 1
 C222 <= 1
 C223 <= 1
 C224 <= 1
 C225 <= 1
 C226 <= 1
 C227 <= 1
 C228 <= 1
 C229 <= 1
 C230 <= 1
End
